c description: Graph pigeonhole principle formula on fast_gnp_random_graph(20,10,0.5)
c generator: CNFgen (0.9.0)
c copyright: (C) 2012-2020 Massimo Lauria <massimo.lauria@uniroma1.it>
c url: https://massimolauria.net/cnfgen
c
p cnf 106 545
1 2 3 4 5 6 0
7 8 9 10 11 0
12 0
13 14 15 16 17 18 19 20 0
21 22 23 24 25 0
26 27 28 29 0
30 31 32 33 34 35 0
36 37 38 39 40 0
41 42 43 0
44 45 46 47 48 49 50 51 52 0
53 54 55 56 0
57 58 59 60 61 62 0
63 64 65 66 67 0
68 69 70 71 72 0
73 74 0
75 76 77 78 79 80 81 82 0
83 84 85 86 87 0
88 89 90 91 92 93 0
94 95 96 97 98 99 0
100 101 102 103 104 105 106 0
-1 -7 0
-1 -13 0
-1 -30 0
-1 -44 0
-1 -68 0
-1 -88 0
-1 -94 0
-1 -100 0
-7 -13 0
-7 -30 0
-7 -44 0
-7 -68 0
-7 -88 0
-7 -94 0
-7 -100 0
-13 -30 0
-13 -44 0
-13 -68 0
-13 -88 0
-13 -94 0
-13 -100 0
-30 -44 0
-30 -68 0
-30 -88 0
-30 -94 0
-30 -100 0
-44 -68 0
-44 -88 0
-44 -94 0
-44 -100 0
-68 -88 0
-68 -94 0
-68 -100 0
-88 -94 0
-88 -100 0
-94 -100 0
-2 -14 0
-2 -21 0
-2 -31 0
-2 -36 0
-2 -41 0
-2 -45 0
-2 -53 0
-2 -57 0
-2 -69 0
-2 -75 0
-2 -83 0
-2 -95 0
-2 -101 0
-14 -21 0
-14 -31 0
-14 -36 0
-14 -41 0
-14 -45 0
-14 -53 0
-14 -57 0
-14 -69 0
-14 -75 0
-14 -83 0
-14 -95 0
-14 -101 0
-21 -31 0
-21 -36 0
-21 -41 0
-21 -45 0
-21 -53 0
-21 -57 0
-21 -69 0
-21 -75 0
-21 -83 0
-21 -95 0
-21 -101 0
-31 -36 0
-31 -41 0
-31 -45 0
-31 -53 0
-31 -57 0
-31 -69 0
-31 -75 0
-31 -83 0
-31 -95 0
-31 -101 0
-36 -41 0
-36 -45 0
-36 -53 0
-36 -57 0
-36 -69 0
-36 -75 0
-36 -83 0
-36 -95 0
-36 -101 0
-41 -45 0
-41 -53 0
-41 -57 0
-41 -69 0
-41 -75 0
-41 -83 0
-41 -95 0
-41 -101 0
-45 -53 0
-45 -57 0
-45 -69 0
-45 -75 0
-45 -83 0
-45 -95 0
-45 -101 0
-53 -57 0
-53 -69 0
-53 -75 0
-53 -83 0
-53 -95 0
-53 -101 0
-57 -69 0
-57 -75 0
-57 -83 0
-57 -95 0
-57 -101 0
-69 -75 0
-69 -83 0
-69 -95 0
-69 -101 0
-75 -83 0
-75 -95 0
-75 -101 0
-83 -95 0
-83 -101 0
-95 -101 0
-3 -15 0
-3 -22 0
-3 -26 0
-3 -32 0
-3 -37 0
-3 -46 0
-3 -58 0
-3 -63 0
-3 -84 0
-3 -89 0
-3 -102 0
-15 -22 0
-15 -26 0
-15 -32 0
-15 -37 0
-15 -46 0
-15 -58 0
-15 -63 0
-15 -84 0
-15 -89 0
-15 -102 0
-22 -26 0
-22 -32 0
-22 -37 0
-22 -46 0
-22 -58 0
-22 -63 0
-22 -84 0
-22 -89 0
-22 -102 0
-26 -32 0
-26 -37 0
-26 -46 0
-26 -58 0
-26 -63 0
-26 -84 0
-26 -89 0
-26 -102 0
-32 -37 0
-32 -46 0
-32 -58 0
-32 -63 0
-32 -84 0
-32 -89 0
-32 -102 0
-37 -46 0
-37 -58 0
-37 -63 0
-37 -84 0
-37 -89 0
-37 -102 0
-46 -58 0
-46 -63 0
-46 -84 0
-46 -89 0
-46 -102 0
-58 -63 0
-58 -84 0
-58 -89 0
-58 -102 0
-63 -84 0
-63 -89 0
-63 -102 0
-84 -89 0
-84 -102 0
-89 -102 0
-4 -16 0
-4 -38 0
-4 -59 0
-4 -64 0
-4 -70 0
-4 -76 0
-4 -90 0
-4 -96 0
-16 -38 0
-16 -59 0
-16 -64 0
-16 -70 0
-16 -76 0
-16 -90 0
-16 -96 0
-38 -59 0
-38 -64 0
-38 -70 0
-38 -76 0
-38 -90 0
-38 -96 0
-59 -64 0
-59 -70 0
-59 -76 0
-59 -90 0
-59 -96 0
-64 -70 0
-64 -76 0
-64 -90 0
-64 -96 0
-70 -76 0
-70 -90 0
-70 -96 0
-76 -90 0
-76 -96 0
-90 -96 0
-8 -17 0
-8 -33 0
-8 -42 0
-8 -47 0
-8 -60 0
-8 -77 0
-8 -103 0
-17 -33 0
-17 -42 0
-17 -47 0
-17 -60 0
-17 -77 0
-17 -103 0
-33 -42 0
-33 -47 0
-33 -60 0
-33 -77 0
-33 -103 0
-42 -47 0
-42 -60 0
-42 -77 0
-42 -103 0
-47 -60 0
-47 -77 0
-47 -103 0
-60 -77 0
-60 -103 0
-77 -103 0
-9 -27 0
-9 -39 0
-9 -48 0
-9 -54 0
-9 -61 0
-9 -65 0
-9 -78 0
-9 -97 0
-27 -39 0
-27 -48 0
-27 -54 0
-27 -61 0
-27 -65 0
-27 -78 0
-27 -97 0
-39 -48 0
-39 -54 0
-39 -61 0
-39 -65 0
-39 -78 0
-39 -97 0
-48 -54 0
-48 -61 0
-48 -65 0
-48 -78 0
-48 -97 0
-54 -61 0
-54 -65 0
-54 -78 0
-54 -97 0
-61 -65 0
-61 -78 0
-61 -97 0
-65 -78 0
-65 -97 0
-78 -97 0
-10 -18 0
-10 -23 0
-10 -43 0
-10 -49 0
-10 -71 0
-10 -79 0
-10 -85 0
-10 -91 0
-10 -104 0
-18 -23 0
-18 -43 0
-18 -49 0
-18 -71 0
-18 -79 0
-18 -85 0
-18 -91 0
-18 -104 0
-23 -43 0
-23 -49 0
-23 -71 0
-23 -79 0
-23 -85 0
-23 -91 0
-23 -104 0
-43 -49 0
-43 -71 0
-43 -79 0
-43 -85 0
-43 -91 0
-43 -104 0
-49 -71 0
-49 -79 0
-49 -85 0
-49 -91 0
-49 -104 0
-71 -79 0
-71 -85 0
-71 -91 0
-71 -104 0
-79 -85 0
-79 -91 0
-79 -104 0
-85 -91 0
-85 -104 0
-91 -104 0
-24 -34 0
-24 -40 0
-24 -50 0
-24 -55 0
-24 -62 0
-24 -66 0
-24 -72 0
-24 -73 0
-24 -80 0
-24 -92 0
-24 -105 0
-34 -40 0
-34 -50 0
-34 -55 0
-34 -62 0
-34 -66 0
-34 -72 0
-34 -73 0
-34 -80 0
-34 -92 0
-34 -105 0
-40 -50 0
-40 -55 0
-40 -62 0
-40 -66 0
-40 -72 0
-40 -73 0
-40 -80 0
-40 -92 0
-40 -105 0
-50 -55 0
-50 -62 0
-50 -66 0
-50 -72 0
-50 -73 0
-50 -80 0
-50 -92 0
-50 -105 0
-55 -62 0
-55 -66 0
-55 -72 0
-55 -73 0
-55 -80 0
-55 -92 0
-55 -105 0
-62 -66 0
-62 -72 0
-62 -73 0
-62 -80 0
-62 -92 0
-62 -105 0
-66 -72 0
-66 -73 0
-66 -80 0
-66 -92 0
-66 -105 0
-72 -73 0
-72 -80 0
-72 -92 0
-72 -105 0
-73 -80 0
-73 -92 0
-73 -105 0
-80 -92 0
-80 -105 0
-92 -105 0
-5 -19 0
-5 -28 0
-5 -35 0
-5 -51 0
-5 -56 0
-5 -74 0
-5 -81 0
-5 -86 0
-5 -98 0
-5 -106 0
-19 -28 0
-19 -35 0
-19 -51 0
-19 -56 0
-19 -74 0
-19 -81 0
-19 -86 0
-19 -98 0
-19 -106 0
-28 -35 0
-28 -51 0
-28 -56 0
-28 -74 0
-28 -81 0
-28 -86 0
-28 -98 0
-28 -106 0
-35 -51 0
-35 -56 0
-35 -74 0
-35 -81 0
-35 -86 0
-35 -98 0
-35 -106 0
-51 -56 0
-51 -74 0
-51 -81 0
-51 -86 0
-51 -98 0
-51 -106 0
-56 -74 0
-56 -81 0
-56 -86 0
-56 -98 0
-56 -106 0
-74 -81 0
-74 -86 0
-74 -98 0
-74 -106 0
-81 -86 0
-81 -98 0
-81 -106 0
-86 -98 0
-86 -106 0
-98 -106 0
-6 -11 0
-6 -12 0
-6 -20 0
-6 -25 0
-6 -29 0
-6 -52 0
-6 -67 0
-6 -82 0
-6 -87 0
-6 -93 0
-6 -99 0
-11 -12 0
-11 -20 0
-11 -25 0
-11 -29 0
-11 -52 0
-11 -67 0
-11 -82 0
-11 -87 0
-11 -93 0
-11 -99 0
-12 -20 0
-12 -25 0
-12 -29 0
-12 -52 0
-12 -67 0
-12 -82 0
-12 -87 0
-12 -93 0
-12 -99 0
-20 -25 0
-20 -29 0
-20 -52 0
-20 -67 0
-20 -82 0
-20 -87 0
-20 -93 0
-20 -99 0
-25 -29 0
-25 -52 0
-25 -67 0
-25 -82 0
-25 -87 0
-25 -93 0
-25 -99 0
-29 -52 0
-29 -67 0
-29 -82 0
-29 -87 0
-29 -93 0
-29 -99 0
-52 -67 0
-52 -82 0
-52 -87 0
-52 -93 0
-52 -99 0
-67 -82 0
-67 -87 0
-67 -93 0
-67 -99 0
-82 -87 0
-82 -93 0
-82 -99 0
-87 -93 0
-87 -99 0
-93 -99 0